c read Graph
c width = 85
c time = 553 ms
c width = 9
c time = 738 ms
c width = 8
c time = 878 ms
c width = 7
c time = 3334 ms
c width = 7
c time = 3726 ms
s td 91 8 98
b 1 1 2 15
b 2 2 3 15 16
b 3 12 13 27 28
b 4 3 15 16 29
b 5 12 27 28 42
b 6 57 71 72 86
b 7 70 83 84 97
b 8 57 72 86 87
b 9 70 83 96 97
b 10 3 4 16 17 29
b 11 4 5 16 17 18 29
b 12 5 6 16 17 18 19 29
b 13 6 7 16 17 18 19 20 29
b 14 7 16 17 18 19 20 29 30
b 15 7 17 18 19 20 29 30 31
b 16 7 18 19 20 29 30 31 32
b 17 7 19 20 29 30 31 32 33
b 18 7 20 29 30 31 32 33 43
b 19 7 20 30 31 32 33 43 44
b 20 7 20 31 32 33 43 44 45
b 21 7 20 32 33 43 44 45 46
b 22 7 20 33 43 44 45 46 57
b 23 7 20 33 44 45 46 57 58
b 24 7 20 33 45 46 57 58 59
b 25 7 20 33 46 57 58 59 72
b 26 7 20 33 46 57 59 72 87
b 27 7 20 33 46 59 72 73 87
b 28 7 20 33 46 59 60 73 87
b 29 7 20 33 46 47 60 73 87
b 30 7 20 33 34 47 60 73 87
b 31 7 20 21 34 47 60 73 87
b 32 7 8 21 34 47 60 73 87
b 33 8 21 34 47 60 73 74 87
b 34 8 21 34 47 60 61 74 87
b 35 8 21 34 47 48 61 74 87
b 36 8 21 34 35 48 61 74 87
b 37 8 21 22 35 48 61 74 87
b 38 8 9 22 35 48 61 74 87
b 39 9 22 35 48 61 74 87 88
b 40 9 22 35 48 61 74 75 88
b 41 9 22 35 48 61 62 75 88
b 42 9 22 35 48 49 62 75 88
b 43 9 22 35 36 49 62 75 88
b 44 9 22 23 36 49 62 75 88
b 45 9 23 36 49 62 75 88 89
b 46 9 23 36 49 62 75 76 89
b 47 9 23 36 49 62 63 76 89
b 48 9 23 36 49 50 63 76 89
b 49 9 23 36 37 50 63 76 89
b 50 9 23 24 37 50 63 76 89
b 51 9 24 37 50 63 76 89 90
b 52 9 24 37 50 63 76 77 90
b 53 9 24 37 50 63 64 77 90
b 54 9 24 37 50 51 64 77 90
b 55 9 24 37 51 64 77 90 91
b 56 9 24 37 51 64 77 78 91
b 57 9 24 37 51 64 65 78 91
b 58 9 24 37 51 52 65 78 91
b 59 9 24 37 39 52 65 78 91
b 60 9 24 39 52 65 78 91 92
b 61 9 24 39 52 65 78 79 92
b 62 9 24 39 52 65 79 92 94
b 63 9 24 39 52 65 79 80 94
b 64 9 24 39 52 65 67 80 94
b 65 9 24 39 52 54 67 80 94
b 66 9 24 39 54 67 80 81 94
b 67 9 24 39 54 67 68 81 94
b 68 9 24 39 54 68 81 94 96
b 69 9 24 39 54 68 81 82 96
b 70 9 24 39 54 68 69 82 96
b 71 9 24 39 54 56 69 82 96
b 72 56 69 70 82 96
b 73 69 70 82 83 96
b 74 9 11 24 39 54 56 69
b 75 11 24 39 41 54 56 69
b 76 41 54 55 56 69
b 77 11 24 26 39 41 54 56
b 78 26 39 40 41 54
b 79 11 26 41 42 56
b 80 11 12 26 41 42
b 81 12 26 27 41 42
b 82 11 24 25 26 39
b 83 9 10 11 24
b 84 81 94 95 96
b 85 39 52 53 54 67
b 86 52 65 66 67 80
b 87 79 92 93 94
b 88 24 37 38 39 52
b 89 84 97 98
b 90 71 85 86
b 91 13 14 28
1 2
2 4
3 91
3 5
4 10
5 81
6 90
6 8
7 89
7 9
8 26
9 73
10 11
11 12
12 13
13 14
14 15
15 16
16 17
17 18
18 19
19 20
20 21
21 22
22 23
23 24
24 25
25 26
26 27
27 28
28 29
29 30
30 31
31 32
32 33
33 34
34 35
35 36
36 37
37 38
38 39
39 40
40 41
41 42
42 43
43 44
44 45
45 46
46 47
47 48
48 49
49 50
50 51
51 52
52 53
53 54
54 55
55 56
56 57
57 58
58 59
59 88
59 60
60 61
61 62
62 87
62 63
63 64
64 86
64 65
65 85
65 66
66 67
67 68
68 84
68 69
69 70
70 71
71 72
71 74
72 73
74 75
74 83
75 76
75 77
77 79
77 82
77 78
79 80
80 81
